
Gurobi 12.0.0 (win64) logging started Mon May  4 20:48:52 2026

Set parameter LogFile to value "C:\Users\Asus\Documents\GitHub\logistics-model2\internal-logistics-model2\results\SR_SV_RD\case2\result_SR_SV_RD_case2_P5_eps9999_2026_05_04_20_48.log"
Gurobi Optimizer version 12.0.0 build v12.0.0rc1 (win64 - Windows 10.0 (19045.2))

CPU model: 12th Gen Intel(R) Core(TM) i7-12650H, instruction set [SSE2|AVX|AVX2]
Thread count: 10 physical cores, 16 logical processors, using up to 16 threads

Non-default parameters:
TimeLimit  600
MIPGap  0.01
Presolve  2

Optimize a model with 2717 rows, 813 columns and 13589 nonzeros
Model fingerprint: 0x090bd46d
Variable types: 133 continuous, 680 integer (655 binary)
Coefficient statistics:
  Matrix range     [1e+00, 5e+02]
  Objective range  [1e-03, 1e+00]
  Bounds range     [1e+00, 3e+01]
  RHS range        [1e+00, 1e+04]
Presolve removed 2450 rows and 711 columns
Presolve time: 0.01s
Presolved: 267 rows, 102 columns, 1118 nonzeros
Variable types: 29 continuous, 73 integer (65 binary)
Root relaxation presolve removed 10 rows and 0 columns
Root relaxation presolved: 257 rows, 111 columns, 1098 nonzeros


Root relaxation: objective 1.500000e-02, 73 iterations, 0.00 seconds (0.00 work units)

    Nodes    |    Current Node    |     Objective Bounds      |     Work
 Expl Unexpl |  Obj  Depth IntInf | Incumbent    BestBd   Gap | It/Node Time

     0     0    0.01500    0   13          -    0.01500      -     -    0s
H    0     0                      79.1500000    0.01500   100%     -    0s
     0     0    0.01500    0   23   79.15000    0.01500   100%     -    0s
     0     0    0.01580    0   32   79.15000    0.01580   100%     -    0s
     0     0    0.02816    0   33   79.15000    0.02816   100%     -    0s
     0     0    0.04795    0   26   79.15000    0.04795   100%     -    0s
H    0     0                      77.1110000    0.04814   100%     -    0s
     0     0    0.04830    0   31   77.11100    0.04830   100%     -    0s
     0     0    0.05832    0   32   77.11100    0.05832   100%     -    0s
     0     0    0.06111    0   28   77.11100    0.06111   100%     -    0s
     0     0    0.06123    0   26   77.11100    0.06123   100%     -    0s
H    0     0                      74.0990000    0.06134   100%     -    0s
     0     0    0.06134    0   31   74.09900    0.06134   100%     -    0s
     0     0    0.06279    0   32   74.09900    0.06279   100%     -    0s
     0     0    0.06355    0   31   74.09900    0.06355   100%     -    0s
     0     0    0.06421    0   30   74.09900    0.06421   100%     -    0s
     0     0    0.06440    0   31   74.09900    0.06440   100%     -    0s
     0     0    0.06464    0   28   74.09900    0.06464   100%     -    0s
H    0     0                      74.0910000    0.06470   100%     -    0s
     0     0    0.06472    0   30   74.09100    0.06472   100%     -    0s
     0     0    0.06494    0   33   74.09100    0.06494   100%     -    0s
     0     0    0.06503    0   34   74.09100    0.06503   100%     -    0s
     0     0    0.06527    0   33   74.09100    0.06527   100%     -    0s
H    0     0                      72.1140000    0.06528   100%     -    0s
     0     0    0.06532    0   33   72.11400    0.06532   100%     -    0s
     0     0    0.06604    0   32   72.11400    0.06604   100%     -    0s
     0     0    0.06631    0   29   72.11400    0.06631   100%     -    0s
     0     0    0.06671    0   28   72.11400    0.06671   100%     -    0s
     0     0    0.06680    0   28   72.11400    0.06680   100%     -    0s
     0     0    0.06680    0   29   72.11400    0.06680   100%     -    0s
     0     0    0.06680    0   29   72.11400    0.06680   100%     -    0s
     0     0    0.06680    0   29   72.11400    0.06680   100%     -    0s
     0     2    0.06680    0   29   72.11400    0.06680   100%     -    0s
*  226   143              21      72.0920000    0.07967   100%  13.3    0s
H  342   171                      71.1050000    0.08534   100%  11.4    0s
H  757   161                      67.0850000    0.16500   100%   9.6    0s

Cutting planes:
  Learned: 9
  Gomory: 1
  Cover: 6
  Implied bound: 34
  MIR: 85
  StrongCG: 1
  Inf proof: 2
  RLT: 3
  Relax-and-lift: 14
  PSD: 1

Explored 1301 nodes (12119 simplex iterations) in 0.23 seconds (0.18 work units)
Thread count was 16 (of 16 available processors)

Solution count 8: 67.085 71.105 72.092 ... 79.15

Optimal solution found (tolerance 1.00e-02)
Best objective 6.708500000000e+01, best bound 6.708500000000e+01, gap 0.0000%
